solution status: optimal solution found
objective value:                     177146.005285443
d11(0,0)                                            1 	(obj:0)
d11(1,1)                                            1 	(obj:0)
d11(2,3)                                            1 	(obj:0)
d11(2,4)                                            1 	(obj:0)
d11(2,5)                                            1 	(obj:0)
d11(2,6)                                            1 	(obj:0)
d11(3,9)                                            1 	(obj:0)
d11(3,11)                                           1 	(obj:0)
d11(3,13)                                           1 	(obj:0)
d11(4,17)                                           1 	(obj:0)
d11(4,19)                                           1 	(obj:0)
d11(4,23)                                           1 	(obj:0)
d11(4,29)                                           1 	(obj:0)
d11(5,31)                                           1 	(obj:0)
d11(5,33)                                           1 	(obj:0)
d11(5,35)                                           1 	(obj:0)
d11(5,37)                                           1 	(obj:0)
d11(5,39)                                           1 	(obj:0)
d11(5,41)                                           1 	(obj:0)
d11(5,43)                                           1 	(obj:0)
d11(5,45)                                           1 	(obj:0)
d11(5,47)                                           1 	(obj:0)
d11(5,49)                                           1 	(obj:0)
d11(5,51)                                           1 	(obj:0)
d11(5,53)                                           1 	(obj:0)
d11(5,55)                                           1 	(obj:0)
d11(5,57)                                           1 	(obj:0)
d11(5,59)                                           1 	(obj:0)
d11(5,61)                                           1 	(obj:0)
d12(3,8)                                            1 	(obj:0)
d12(3,10)                                           1 	(obj:0)
d12(3,12)                                           1 	(obj:0)
d12(3,14)                                           1 	(obj:0)
d12(4,16)                                           1 	(obj:0)
d12(4,18)                                           1 	(obj:0)
d12(4,20)                                           1 	(obj:0)
d12(4,22)                                           1 	(obj:0)
d12(4,24)                                           1 	(obj:0)
d12(4,26)                                           1 	(obj:0)
d12(4,28)                                           1 	(obj:0)
d12(4,30)                                           1 	(obj:0)
d12(5,32)                                           1 	(obj:0)
d12(5,34)                                           1 	(obj:0)
d12(5,36)                                           1 	(obj:0)
d12(5,38)                                           1 	(obj:0)
d12(5,40)                                           1 	(obj:0)
d12(5,42)                                           1 	(obj:0)
d12(5,44)                                           1 	(obj:0)
d12(5,46)                                           1 	(obj:0)
d12(5,48)                                           1 	(obj:0)
d12(5,50)                                           1 	(obj:0)
d12(5,52)                                           1 	(obj:0)
d12(5,54)                                           1 	(obj:0)
d12(5,56)                                           1 	(obj:0)
d12(5,58)                                           1 	(obj:0)
d12(5,60)                                           1 	(obj:0)
d12(5,62)                                           1 	(obj:0)
d21(2,3)                                            1 	(obj:0)
d21(3,7)                                            1 	(obj:0)
d21(4,15)                                           1 	(obj:0)
d21(4,16)                                           1 	(obj:0)
d21(4,17)                                           1 	(obj:0)
d21(4,19)                                           1 	(obj:0)
d21(4,23)                                           1 	(obj:0)
d21(5,31)                                           1 	(obj:0)
d21(5,32)                                           1 	(obj:0)
d21(5,33)                                           1 	(obj:0)
d21(5,34)                                           1 	(obj:0)
d21(5,35)                                           1 	(obj:0)
d21(5,36)                                           1 	(obj:0)
d21(5,37)                                           1 	(obj:0)
d21(5,39)                                           1 	(obj:0)
d21(5,40)                                           1 	(obj:0)
d21(5,41)                                           1 	(obj:0)
d21(5,43)                                           1 	(obj:0)
d21(5,47)                                           1 	(obj:0)
d21(5,48)                                           1 	(obj:0)
d21(5,49)                                           1 	(obj:0)
d21(5,51)                                           1 	(obj:0)
y2(5,40)                             219.922916014937 	(obj:0)
y2(5,42)                             219.922916014937 	(obj:0)
y2(5,44)                             219.922916014937 	(obj:0)
y2(5,46)                             219.922916014937 	(obj:0)
y2(5,48)                             219.922916014937 	(obj:0)
y2(5,50)                             219.922916014937 	(obj:0)
y2(5,52)                             219.922916014936 	(obj:0)
y2(5,54)                             219.922916014937 	(obj:0)
y2(5,56)                             219.922916014937 	(obj:0)
y2(5,58)                             219.922916014937 	(obj:0)
y2(5,60)                             219.922916014937 	(obj:0)
y2(5,62)                             219.922916014937 	(obj:0)
STE(1,1)                             2688.75010111115 	(obj:0)
STE(0,0)                                         4725 	(obj:0)
STE(1,2)                                         4347 	(obj:0)
STE(2,3)                             479.285914123532 	(obj:0)
STE(2,4)                             2137.53581301235 	(obj:0)
STE(2,5)                             2137.53581301238 	(obj:0)
STE(2,6)                              3795.7857119012 	(obj:0)
STE(3,7)                             101.285914123532 	(obj:0)
STE(3,8)                                       1417.5 	(obj:0)
STE(3,9)                             1759.53581301235 	(obj:0)
STE(3,10)                            3075.74989888882 	(obj:0)
STE(3,11)                            1759.53581301238 	(obj:0)
STE(3,12)                            3075.74989888885 	(obj:0)
STE(3,13)                             3417.7857119012 	(obj:0)
STE(3,14)                            4733.99979777766 	(obj:0)
STE(4,15)                           -276.714085876468 	(obj:0)
STE(4,16)                            1039.50000000004 	(obj:0)
STE(4,17)                                      1039.5 	(obj:0)
STE(4,18)                            2355.71408587651 	(obj:0)
STE(4,19)                            1381.53581301235 	(obj:0)
STE(4,20)                            2697.74989888886 	(obj:0)
STE(4,21)                            2697.74989888882 	(obj:0)
STE(4,22)                            4013.96398476534 	(obj:0)
STE(4,23)                            1381.53581301238 	(obj:0)
STE(4,24)                             2697.7498988889 	(obj:0)
STE(4,25)                            2697.74989888885 	(obj:0)
STE(4,26)                            4013.96398476535 	(obj:0)
STE(4,27)                             3039.7857119012 	(obj:0)
STE(4,28)                             4355.9997977777 	(obj:0)
STE(4,29)                            4355.99979777766 	(obj:0)
STE(4,30)                            5672.21388365417 	(obj:0)
STE(5,31)                           -1898.99979777766 	(obj:0)
STE(5,32)                           -445.787315662278 	(obj:0)
STE(5,33)                           -582.785711901158 	(obj:0)
STE(5,34)                            870.426770214228 	(obj:0)
STE(5,35)                           -582.785711901196 	(obj:0)
STE(5,36)                             870.42677021419 	(obj:0)
STE(5,37)                             733.42837397531 	(obj:0)
STE(5,38)                             2186.6408560907 	(obj:0)
STE(5,39)                           -240.749898888846 	(obj:0)
STE(5,40)                            1212.46258322654 	(obj:0)
STE(5,41)                            1075.46418698766 	(obj:0)
STE(5,42)                            2528.67666910305 	(obj:0)
STE(5,43)                            1075.46418698762 	(obj:0)
STE(5,44)                            2528.67666910301 	(obj:0)
STE(5,45)                            2391.67827286414 	(obj:0)
STE(5,46)                            3844.89075497953 	(obj:0)
STE(5,47)                           -240.749898888756 	(obj:0)
STE(5,48)                            1212.46258322657 	(obj:0)
STE(5,49)                             1075.4641869877 	(obj:0)
STE(5,50)                            2528.67666910309 	(obj:0)
STE(5,51)                            1075.46418698765 	(obj:0)
STE(5,52)                            2528.67666910304 	(obj:0)
STE(5,53)                            2391.67827286416 	(obj:0)
STE(5,54)                            3844.89075497954 	(obj:0)
STE(5,55)                                      1417.5 	(obj:0)
STE(5,56)                            2870.71248211539 	(obj:0)
STE(5,57)                            2733.71408587657 	(obj:0)
STE(5,58)                            4186.92656799189 	(obj:0)
STE(5,59)                            2733.71408587647 	(obj:0)
STE(5,60)                            4186.92656799185 	(obj:0)
STE(5,61)                            4049.92817175297 	(obj:0)
STE(5,62)                            5503.14065386836 	(obj:0)
y1(5,39)                             1119.85714071108 	(obj:0)
y1(5,41)                             1119.85714071108 	(obj:0)
y1(5,43)                             1119.85714071108 	(obj:0)
y1(5,45)                             1119.85714071108 	(obj:0)
y1(5,47)                             1119.85714071102 	(obj:0)
y1(5,49)                             1119.85714071108 	(obj:0)
y1(5,51)                             1119.85714071108 	(obj:0)
y1(5,53)                             1119.85714071108 	(obj:0)
y1(5,55)                             1119.85714071108 	(obj:0)
y1(5,57)                             1119.85714071102 	(obj:0)
y1(5,59)                             1119.85714071108 	(obj:0)
y1(5,61)                             1119.85714071108 	(obj:0)
AVE(1)                                   3216.9117036 	(obj:0)
AVE(2)                                   3366.1541945 	(obj:0)
WB(3)                                    3515.3966854 	(obj:0)
AVE(3)                                   3515.3966854 	(obj:0)
WB(4)                                3515.39406545553 	(obj:0)
AVE(4)                               3515.39406545826 	(obj:0)
WB(5)                                3167.15385943327 	(obj:0)
AVE(5)                               3167.15385943327 	(obj:0)
WG(1)                                3216.91170359999 	(obj:10)
WG(2)                                    3366.1541945 	(obj:10)
WG(4)                            2.73219632859133e-009 	(obj:10)
BG(1)                                979.380795379606 	(obj:10)
BG(2)                                989.212650692753 	(obj:10)
BG(3)                                2673.40993877555 	(obj:10)
BG(4)                                2673.40993877278 	(obj:10)
BG(5)                                3816.12130684808 	(obj:10)
y1(1,1)                              1492.42490899996 	(obj:0)
y1(2,3)                              1648.31776828886 	(obj:0)
y1(2,4)                              155.892859288924 	(obj:0)
y1(2,5)                              1648.31776828886 	(obj:0)
y1(2,6)                              155.892859288924 	(obj:0)
y1(5,31)                             1119.85714071108 	(obj:0)
y1(5,33)                             1119.85714071108 	(obj:0)
y1(5,35)                             1119.85714071108 	(obj:0)
y1(5,37)                             1119.85714071108 	(obj:0)
y2(3,8)                              1385.48851144891 	(obj:0)
y2(3,10)                             1385.48851144891 	(obj:0)
y2(3,12)                             1385.48851144891 	(obj:0)
y2(3,14)                             1385.48851144891 	(obj:0)
y2(4,16)                             1385.48851144895 	(obj:0)
y2(4,18)                             1385.48851144895 	(obj:0)
y2(4,20)                             1385.48851144895 	(obj:0)
y2(4,22)                             1385.48851144897 	(obj:0)
y2(4,24)                             1385.48851144897 	(obj:0)
y2(4,26)                             1385.48851144895 	(obj:0)
y2(4,28)                             1385.48851144895 	(obj:0)
y2(4,30)                             1385.48851144895 	(obj:0)
y2(5,32)                             219.922916014937 	(obj:0)
y2(5,34)                             219.922916014937 	(obj:0)
y2(5,36)                             219.922916014937 	(obj:0)
y2(5,38)                             219.922916014937 	(obj:0)
